2
100
147
40	36
1	1	23	3	
2	1	15	4	
3	1	29	4	
4	1	7	15	
5	2	17	4	30	3	
6	2	6	13	15	6	
7	1	34	3	
8	1	5	17	
9	1	19	7	
10	1	28	3	
11	2	25	3	17	3	
12	2	32	4	24	4	
13	2	8	8	12	5	
14	2	7	18	6	16	
15	2	11	5	22	2	
16	2	10	9	15	6	
17	2	18	4	24	3	
18	2	20	3	17	2	
19	2	12	7	33	3	
20	2	13	8	34	4	
21	2	11	6	27	3	
22	2	8	16	17	2	
23	1	20	9	
24	1	29	2	
25	2	18	8	28	3	
26	1	7	10	
27	2	7	14	26	2	
28	1	25	3	
29	1	26	3	
30	2	7	12	31	2	
31	1	6	15	
32	2	13	9	31	3	
33	1	16	4	
34	1	4	10	
35	2	7	16	16	4	
36	1	6	14	
37	1	19	10	
38	2	30	4	27	4	
39	2	32	3	22	3	
40	1	28	3	
41	1	27	3	
42	1	18	4	
43	1	16	9	
44	2	5	14	20	4	
45	1	11	4	
46	2	10	10	15	9	
47	2	8	18	21	3	
48	2	30	3	33	2	
49	2	5	15	8	12	
50	2	32	3	22	3	
51	2	7	14	9	6	
52	1	18	6	
53	1	17	7	
54	2	11	7	11	6	
55	2	6	17	28	3	
56	1	5	16	
57	1	15	10	
58	2	6	17	9	6	
59	1	5	13	
60	2	10	6	10	5	
61	2	5	13	20	3	
62	2	9	9	30	2	
63	1	15	6	
64	2	7	11	9	7	
65	1	8	9	
66	2	8	16	36	2	
67	1	18	8	
68	1	8	10	
69	1	30	3	
70	1	20	6	
71	1	18	3	
72	2	18	7	18	3	
73	1	20	4	
74	2	15	7	19	6	
75	2	6	16	30	3	
76	1	18	2	
77	2	5	15	8	6	
78	1	4	8	
79	1	5	13	
80	1	30	3	
81	1	16	5	
82	2	15	8	26	3	
83	1	10	8	
84	1	24	3	
85	1	35	4	
86	1	22	3	
87	1	8	14	
88	1	6	13	
89	1	28	3	
90	1	12	9	
91	2	5	15	6	9	
92	2	6	14	21	2	
93	1	20	7	
94	2	13	9	8	6	
95	1	34	4	
96	2	4	16	29	3	
97	1	32	4	
98	1	5	16	
99	2	29	3	20	3	
100	2	7	13	29	3	
